NAME : XML100_1161_20
DIMENSION : 101
NB_CLUSTERS : 25
CLUSTERING_ALG : KMedoids
CLUSTERING_PARAMS : k(36)
CLUSTERS
1 0
2 24 35
3 22 48 54
4 5 14 59 80 87
5 53 77
6 4 20 49 58 88
7 1 11 74 82
8 13 17 42 55 61 67 81
9 33 97
10 26 28 83 89 100
11 18 65 85
12 21 32 36 57
13 10 31 73 76
14 27 30 45
15 41 56 69
16 8 38 86 96 98
17 19 43
18 29 60 75 91
19 9 47 64 71 92 94
20 6 37
21 3 23 52 62 93
22 12 15 40 44 51 63 66 70 78 79
23 46 72 84 99
24 2 7 16 25 34 50 90
25 39 68 95
EOF